Route #1:
Route #2: 18 27 25 22
Route #3: 6 29 2 30
Route #4: 24 28
Route #5: 23 20
Route #6: 12 26
Route #7: 9 19 17 21 3
Route #8: 16 1
Route #9: 11 4 8 5 7 31
Route #10: 10 15 13 14

Cost: 2054.7412142218154
